p cnf 22 48
a 18 12 0
e 1 2 3 4 5 6 7 8 9 10 11 13 14 15 16 17 19 20 21 22 0
3 1 0
3 -2 0
-1 2 -3 0
-5 -4 0
-5 4 0
6 -3 0
6 5 0
3 -5 -6 0
-8 -7 0
-8 -4 0
7 4 8 0
-10 -8 0
-10 -9 0
8 9 10 0
11 6 0
11 -10 0
-6 10 -11 0
14 -7 0
14 13 0
7 -13 -14 0
15 -12 0
15 14 0
12 -14 -15 0
11 15 -16 0
-11 -15 -16 0
11 -15 16 0
-11 15 16 0
-2 -1 -17 0
2 1 -17 0
-2 1 17 0
2 -1 17 0
19 -1 0
19 -18 0
1 18 -19 0
20 -19 0
20 5 0
19 -5 -20 0
-21 -17 0
-21 -20 0
17 20 21 0
22 16 0
22 21 0
-16 -21 -22 0
13 4 11 -21 14 6 0
22 -1 6 18 11 9 -21 0
17 19 -4 3 -21 2 0
-15 -14 -21 -12 -22 0
22 0
